(set-logic HORN)
(declare-fun invariant (Real Real Real Real Real Real Real Real Real Real Real Real Real Real Real Real Real Real Real Real Real Real Real Real Real Real Real Real Real Real Real Real Real Real Real Real Real Real Real Real Bool Bool Bool Bool Bool Bool Bool Bool Bool Real Real Real Real Real Real Real Real) Bool)

;; Initial state
(assert
  (forall ((state.cx!0!0 Real) (state.cx!0!1 Real) (state.cx!0!2 Real) (state.cx!0!3 Real) (state.cx!1!0 Real) (state.cx!1!1 Real) (state.cx!1!2 Real) (state.cx!1!3 Real) (state.cx!2!0 Real) (state.cx!2!1 Real) (state.cx!2!2 Real) (state.cx!2!3 Real) (state.cx!3!0 Real) (state.cx!3!1 Real) (state.cx!3!2 Real) (state.cx!3!3 Real) (state.cx!4!0 Real) (state.cx!4!1 Real) (state.cx!4!2 Real) (state.cx!4!3 Real) (state.cy!0!0 Real) (state.cy!0!1 Real) (state.cy!0!2 Real) (state.cy!0!3 Real) (state.cy!1!0 Real) (state.cy!1!1 Real) (state.cy!1!2 Real) (state.cy!1!3 Real) (state.cy!2!0 Real) (state.cy!2!1 Real) (state.cy!2!2 Real) (state.cy!2!3 Real) (state.cy!3!0 Real) (state.cy!3!1 Real) (state.cy!3!2 Real) (state.cy!3!3 Real) (state.cy!4!0 Real) (state.cy!4!1 Real) (state.cy!4!2 Real) (state.cy!4!3 Real) (state.good_p!0 Bool) (state.good_p!1 Bool) (state.good_p!2 Bool) (state.good_p!3 Bool) (state.good_p!4 Bool) (state.good_r!0 Bool) (state.good_r!1 Bool) (state.good_r!2 Bool) (state.good_r!3 Bool) (state.v!0 Real) (state.v!1 Real) (state.v!2 Real) (state.v!3 Real) (state.v!4 Real) (state.round Real) (state.source Real) (state.val Real))
    (=> (let ((l0 (= |state.round| 0))) (let ((l1 (= |state.cx!0!0| 0))) (let ((l2 (= |state.cx!0!1| 0))) (let ((l3 (= |state.cx!0!2| 0))) (let ((l4 (= |state.cx!0!3| 0))) (let ((l5 (= |state.cx!1!0| 0))) (let ((l6 (= |state.cx!1!1| 0))) (let ((l7 (= |state.cx!1!2| 0))) (let ((l8 (= |state.cx!1!3| 0))) (let ((l9 (= |state.cx!2!0| 0))) (let ((l10 (= |state.cx!2!1| 0))) (let ((l11 (= |state.cx!2!2| 0))) (let ((l12 (= |state.cx!2!3| 0))) (let ((l13 (= |state.cx!3!0| 0))) (let ((l14 (= |state.cx!3!1| 0))) (let ((l15 (= |state.cx!3!2| 0))) (let ((l16 (= |state.cx!3!3| 0))) (let ((l17 (= |state.cx!4!0| 0))) (let ((l18 (= |state.cx!4!1| 0))) (let ((l19 (= |state.cx!4!2| 0))) (let ((l20 (= |state.cx!4!3| 0))) (let ((l21 (= |state.cy!0!0| 0))) (let ((l22 (= |state.cy!0!1| 0))) (let ((l23 (= |state.cy!0!2| 0))) (let ((l24 (= |state.cy!0!3| 0))) (let ((l25 (= |state.cy!1!0| 0))) (let ((l26 (= |state.cy!1!1| 0))) (let ((l27 (= |state.cy!1!2| 0))) (let ((l28 (= |state.cy!1!3| 0))) (let ((l29 (= |state.cy!2!0| 0))) (let ((l30 (= |state.cy!2!1| 0))) (let ((l31 (= |state.cy!2!2| 0))) (let ((l32 (= |state.cy!2!3| 0))) (let ((l33 (= |state.cy!3!0| 0))) (let ((l34 (= |state.cy!3!1| 0))) (let ((l35 (= |state.cy!3!2| 0))) (let ((l36 (= |state.cy!3!3| 0))) (let ((l37 (= |state.cy!4!0| 0))) (let ((l38 (= |state.cy!4!1| 0))) (let ((l39 (= |state.cy!4!2| 0))) (let ((l40 (= |state.cy!4!3| 0))) (let ((l41 (= |state.source| 1))) (let ((l42 (= |state.source| 2))) (let ((l43 (= |state.source| 3))) (let ((l44 (= |state.source| 4))) (let ((l45 (= |state.source| 5))) (let ((l46 (or l41 l42 l43 l44 l45))) (let ((l47 (= |state.val| 0))) (let ((l48 (not l47))) (let ((l49 (and |state.good_p!0| |state.good_p!1| |state.good_p!2| |state.good_p!3| |state.good_p!4|))) (let ((l50 (not |state.good_r!0|))) (let ((l51 (and l50 |state.good_r!1| |state.good_r!2| |state.good_r!3|))) (let ((l52 (not |state.good_r!1|))) (let ((l53 (and l52 |state.good_r!0| |state.good_r!2| |state.good_r!3|))) (let ((l54 (not |state.good_r!2|))) (let ((l55 (and l54 |state.good_r!0| |state.good_r!1| |state.good_r!3|))) (let ((l56 (not |state.good_r!3|))) (let ((l57 (and l56 |state.good_r!0| |state.good_r!1| |state.good_r!2|))) (let ((l58 (or l51 l53 l55 l57))) (let ((l59 (and l0 l1 l2 l3 l4 l5 l6 l7 l8 l9 l10 l11 l12 l13 l14 l15 l16 l17 l18 l19 l20 l21 l22 l23 l24 l25 l26 l27 l28 l29 l30 l31 l32 l33 l34 l35 l36 l37 l38 l39 l40 l46 l48 l49 l58))) l59))))))))))))))))))))))))))))))))))))))))))))))))))))))))))))
        (invariant state.cx!0!0 state.cx!0!1 state.cx!0!2 state.cx!0!3 state.cx!1!0 state.cx!1!1 state.cx!1!2 state.cx!1!3 state.cx!2!0 state.cx!2!1 state.cx!2!2 state.cx!2!3 state.cx!3!0 state.cx!3!1 state.cx!3!2 state.cx!3!3 state.cx!4!0 state.cx!4!1 state.cx!4!2 state.cx!4!3 state.cy!0!0 state.cy!0!1 state.cy!0!2 state.cy!0!3 state.cy!1!0 state.cy!1!1 state.cy!1!2 state.cy!1!3 state.cy!2!0 state.cy!2!1 state.cy!2!2 state.cy!2!3 state.cy!3!0 state.cy!3!1 state.cy!3!2 state.cy!3!3 state.cy!4!0 state.cy!4!1 state.cy!4!2 state.cy!4!3 state.good_p!0 state.good_p!1 state.good_p!2 state.good_p!3 state.good_p!4 state.good_r!0 state.good_r!1 state.good_r!2 state.good_r!3 state.v!0 state.v!1 state.v!2 state.v!3 state.v!4 state.round state.source state.val))
  )
)

;; Transition relation
(assert
  (forall ((state.cx!0!0 Real) (next.cx!0!0 Real) (state.cx!0!1 Real) (next.cx!0!1 Real) (state.cx!0!2 Real) (next.cx!0!2 Real) (state.cx!0!3 Real) (next.cx!0!3 Real) (state.cx!1!0 Real) (next.cx!1!0 Real) (state.cx!1!1 Real) (next.cx!1!1 Real) (state.cx!1!2 Real) (next.cx!1!2 Real) (state.cx!1!3 Real) (next.cx!1!3 Real) (state.cx!2!0 Real) (next.cx!2!0 Real) (state.cx!2!1 Real) (next.cx!2!1 Real) (state.cx!2!2 Real) (next.cx!2!2 Real) (state.cx!2!3 Real) (next.cx!2!3 Real) (state.cx!3!0 Real) (next.cx!3!0 Real) (state.cx!3!1 Real) (next.cx!3!1 Real) (state.cx!3!2 Real) (next.cx!3!2 Real) (state.cx!3!3 Real) (next.cx!3!3 Real) (state.cx!4!0 Real) (next.cx!4!0 Real) (state.cx!4!1 Real) (next.cx!4!1 Real) (state.cx!4!2 Real) (next.cx!4!2 Real) (state.cx!4!3 Real) (next.cx!4!3 Real) (state.cy!0!0 Real) (next.cy!0!0 Real) (state.cy!0!1 Real) (next.cy!0!1 Real) (state.cy!0!2 Real) (next.cy!0!2 Real) (state.cy!0!3 Real) (next.cy!0!3 Real) (state.cy!1!0 Real) (next.cy!1!0 Real) (state.cy!1!1 Real) (next.cy!1!1 Real) (state.cy!1!2 Real) (next.cy!1!2 Real) (state.cy!1!3 Real) (next.cy!1!3 Real) (state.cy!2!0 Real) (next.cy!2!0 Real) (state.cy!2!1 Real) (next.cy!2!1 Real) (state.cy!2!2 Real) (next.cy!2!2 Real) (state.cy!2!3 Real) (next.cy!2!3 Real) (state.cy!3!0 Real) (next.cy!3!0 Real) (state.cy!3!1 Real) (next.cy!3!1 Real) (state.cy!3!2 Real) (next.cy!3!2 Real) (state.cy!3!3 Real) (next.cy!3!3 Real) (state.cy!4!0 Real) (next.cy!4!0 Real) (state.cy!4!1 Real) (next.cy!4!1 Real) (state.cy!4!2 Real) (next.cy!4!2 Real) (state.cy!4!3 Real) (next.cy!4!3 Real) (state.good_p!0 Bool) (next.good_p!0 Bool) (state.good_p!1 Bool) (next.good_p!1 Bool) (state.good_p!2 Bool) (next.good_p!2 Bool) (state.good_p!3 Bool) (next.good_p!3 Bool) (state.good_p!4 Bool) (next.good_p!4 Bool) (state.good_r!0 Bool) (next.good_r!0 Bool) (state.good_r!1 Bool) (next.good_r!1 Bool) (state.good_r!2 Bool) (next.good_r!2 Bool) (state.good_r!3 Bool) (next.good_r!3 Bool) (state.v!0 Real) (next.v!0 Real) (state.v!1 Real) (next.v!1 Real) (state.v!2 Real) (next.v!2 Real) (state.v!3 Real) (next.v!3 Real) (state.v!4 Real) (next.v!4 Real) (state.round Real) (next.round Real) (state.source Real) (next.source Real) (state.val Real) (next.val Real))
    (=> (and (invariant state.cx!0!0 state.cx!0!1 state.cx!0!2 state.cx!0!3 state.cx!1!0 state.cx!1!1 state.cx!1!2 state.cx!1!3 state.cx!2!0 state.cx!2!1 state.cx!2!2 state.cx!2!3 state.cx!3!0 state.cx!3!1 state.cx!3!2 state.cx!3!3 state.cx!4!0 state.cx!4!1 state.cx!4!2 state.cx!4!3 state.cy!0!0 state.cy!0!1 state.cy!0!2 state.cy!0!3 state.cy!1!0 state.cy!1!1 state.cy!1!2 state.cy!1!3 state.cy!2!0 state.cy!2!1 state.cy!2!2 state.cy!2!3 state.cy!3!0 state.cy!3!1 state.cy!3!2 state.cy!3!3 state.cy!4!0 state.cy!4!1 state.cy!4!2 state.cy!4!3 state.good_p!0 state.good_p!1 state.good_p!2 state.good_p!3 state.good_p!4 state.good_r!0 state.good_r!1 state.good_r!2 state.good_r!3 state.v!0 state.v!1 state.v!2 state.v!3 state.v!4 state.round state.source state.val)
             (let ((l0 (= |next.source| |state.source|))) (let ((l1 (= |next.val| |state.val|))) (let ((l2 (= |state.round| 0))) (let ((l3 (not |state.good_p!0|))) (let ((l4 (= 1 |state.source|))) (let ((l5 (not l4))) (let ((l6 (= |next.cx!0!0| |state.val|))) (let ((l7 (= |next.cx!0!1| |state.val|))) (let ((l8 (= |next.cx!0!2| |state.val|))) (let ((l9 (= |next.cx!0!3| |state.val|))) (let ((l10 (and l6 l7 l8 l9))) (let ((l11 (or l3 l5 l10))) (let ((l12 (not |state.good_p!1|))) (let ((l13 (= 2 |state.source|))) (let ((l14 (not l13))) (let ((l15 (= |next.cx!1!0| |state.val|))) (let ((l16 (= |next.cx!1!1| |state.val|))) (let ((l17 (= |next.cx!1!2| |state.val|))) (let ((l18 (= |next.cx!1!3| |state.val|))) (let ((l19 (and l15 l16 l17 l18))) (let ((l20 (or l12 l14 l19))) (let ((l21 (not |state.good_p!2|))) (let ((l22 (= 3 |state.source|))) (let ((l23 (not l22))) (let ((l24 (= |next.cx!2!0| |state.val|))) (let ((l25 (= |next.cx!2!1| |state.val|))) (let ((l26 (= |next.cx!2!2| |state.val|))) (let ((l27 (= |next.cx!2!3| |state.val|))) (let ((l28 (and l24 l25 l26 l27))) (let ((l29 (or l21 l23 l28))) (let ((l30 (not |state.good_p!3|))) (let ((l31 (= 4 |state.source|))) (let ((l32 (not l31))) (let ((l33 (= |next.cx!3!0| |state.val|))) (let ((l34 (= |next.cx!3!1| |state.val|))) (let ((l35 (= |next.cx!3!2| |state.val|))) (let ((l36 (= |next.cx!3!3| |state.val|))) (let ((l37 (and l33 l34 l35 l36))) (let ((l38 (or l30 l32 l37))) (let ((l39 (not |state.good_p!4|))) (let ((l40 (= 5 |state.source|))) (let ((l41 (not l40))) (let ((l42 (= |next.cx!4!0| |state.val|))) (let ((l43 (= |next.cx!4!1| |state.val|))) (let ((l44 (= |next.cx!4!2| |state.val|))) (let ((l45 (= |next.cx!4!3| |state.val|))) (let ((l46 (and l42 l43 l44 l45))) (let ((l47 (or l39 l41 l46))) (let ((l48 (= |next.cx!0!0| 0))) (let ((l49 (= |next.cx!0!1| 0))) (let ((l50 (= |next.cx!0!2| 0))) (let ((l51 (= |next.cx!0!3| 0))) (let ((l52 (and l48 l49 l50 l51))) (let ((l53 (or l3 l4 l52))) (let ((l54 (= |next.cx!1!0| 0))) (let ((l55 (= |next.cx!1!1| 0))) (let ((l56 (= |next.cx!1!2| 0))) (let ((l57 (= |next.cx!1!3| 0))) (let ((l58 (and l54 l55 l56 l57))) (let ((l59 (or l12 l13 l58))) (let ((l60 (= |next.cx!2!0| 0))) (let ((l61 (= |next.cx!2!1| 0))) (let ((l62 (= |next.cx!2!2| 0))) (let ((l63 (= |next.cx!2!3| 0))) (let ((l64 (and l60 l61 l62 l63))) (let ((l65 (or l21 l22 l64))) (let ((l66 (= |next.cx!3!0| 0))) (let ((l67 (= |next.cx!3!1| 0))) (let ((l68 (= |next.cx!3!2| 0))) (let ((l69 (= |next.cx!3!3| 0))) (let ((l70 (and l66 l67 l68 l69))) (let ((l71 (or l30 l31 l70))) (let ((l72 (= |next.cx!4!0| 0))) (let ((l73 (= |next.cx!4!1| 0))) (let ((l74 (= |next.cx!4!2| 0))) (let ((l75 (= |next.cx!4!3| 0))) (let ((l76 (and l72 l73 l74 l75))) (let ((l77 (or l39 l40 l76))) (let ((l78 (and l11 l20 l29 l38 l47 l53 l59 l65 l71 l77))) (let ((l79 (= |next.round| 1))) (let ((l80 (= |next.cy!0!0| |state.cy!0!0|))) (let ((l81 (= |next.cy!0!1| |state.cy!0!1|))) (let ((l82 (= |next.cy!0!2| |state.cy!0!2|))) (let ((l83 (= |next.cy!0!3| |state.cy!0!3|))) (let ((l84 (= |next.cy!1!0| |state.cy!1!0|))) (let ((l85 (= |next.cy!1!1| |state.cy!1!1|))) (let ((l86 (= |next.cy!1!2| |state.cy!1!2|))) (let ((l87 (= |next.cy!1!3| |state.cy!1!3|))) (let ((l88 (= |next.cy!2!0| |state.cy!2!0|))) (let ((l89 (= |next.cy!2!1| |state.cy!2!1|))) (let ((l90 (= |next.cy!2!2| |state.cy!2!2|))) (let ((l91 (= |next.cy!2!3| |state.cy!2!3|))) (let ((l92 (= |next.cy!3!0| |state.cy!3!0|))) (let ((l93 (= |next.cy!3!1| |state.cy!3!1|))) (let ((l94 (= |next.cy!3!2| |state.cy!3!2|))) (let ((l95 (= |next.cy!3!3| |state.cy!3!3|))) (let ((l96 (= |next.cy!4!0| |state.cy!4!0|))) (let ((l97 (= |next.cy!4!1| |state.cy!4!1|))) (let ((l98 (= |next.cy!4!2| |state.cy!4!2|))) (let ((l99 (= |next.cy!4!3| |state.cy!4!3|))) (let ((l100 (and l80 l81 l82 l83 l84 l85 l86 l87 l88 l89 l90 l91 l92 l93 l94 l95 l96 l97 l98 l99))) (let ((l101 (= |next.good_p!0| |state.good_p!0|))) (let ((l102 (= |next.good_p!1| |state.good_p!1|))) (let ((l103 (= |next.good_p!2| |state.good_p!2|))) (let ((l104 (= |next.good_p!3| |state.good_p!3|))) (let ((l105 (= |next.good_p!4| |state.good_p!4|))) (let ((l106 (and l101 l102 l103 l104 l105))) (let ((l107 (= |next.good_r!0| |state.good_r!0|))) (let ((l108 (= |next.good_r!1| |state.good_r!1|))) (let ((l109 (= |next.good_r!2| |state.good_r!2|))) (let ((l110 (= |next.good_r!3| |state.good_r!3|))) (let ((l111 (and l107 l108 l109 l110))) (let ((l112 (= |next.v!0| |state.v!0|))) (let ((l113 (= |next.v!1| |state.v!1|))) (let ((l114 (= |next.v!2| |state.v!2|))) (let ((l115 (= |next.v!3| |state.v!3|))) (let ((l116 (= |next.v!4| |state.v!4|))) (let ((l117 (and l112 l113 l114 l115 l116))) (let ((l118 (and l2 l78 l79 l100 l106 l111 l117))) (let ((l119 (= |state.round| 1))) (let ((l120 (not |state.good_r!0|))) (let ((l121 (= |state.source| 5))) (let ((l122 (= |state.source| 4))) (let ((l123 (= |state.source| 3))) (let ((l124 (= |state.source| 2))) (let ((l125 (ite l124 |state.cx!1!0| |state.cx!0!0|))) (let ((l126 (ite l123 |state.cx!2!0| l125))) (let ((l127 (ite l122 |state.cx!3!0| l126))) (let ((l128 (ite l121 |state.cx!4!0| l127))) (let ((l129 (= |next.cy!0!0| l128))) (let ((l130 (or l120 l129))) (let ((l131 (= |next.cy!1!0| l128))) (let ((l132 (or l120 l131))) (let ((l133 (= |next.cy!2!0| l128))) (let ((l134 (or l120 l133))) (let ((l135 (= |next.cy!3!0| l128))) (let ((l136 (or l120 l135))) (let ((l137 (= |next.cy!4!0| l128))) (let ((l138 (or l120 l137))) (let ((l139 (not |state.good_r!1|))) (let ((l140 (ite l124 |state.cx!1!1| |state.cx!0!1|))) (let ((l141 (ite l123 |state.cx!2!1| l140))) (let ((l142 (ite l122 |state.cx!3!1| l141))) (let ((l143 (ite l121 |state.cx!4!1| l142))) (let ((l144 (= |next.cy!0!1| l143))) (let ((l145 (or l139 l144))) (let ((l146 (= |next.cy!1!1| l143))) (let ((l147 (or l139 l146))) (let ((l148 (= |next.cy!2!1| l143))) (let ((l149 (or l139 l148))) (let ((l150 (= |next.cy!3!1| l143))) (let ((l151 (or l139 l150))) (let ((l152 (= |next.cy!4!1| l143))) (let ((l153 (or l139 l152))) (let ((l154 (not |state.good_r!2|))) (let ((l155 (ite l124 |state.cx!1!2| |state.cx!0!2|))) (let ((l156 (ite l123 |state.cx!2!2| l155))) (let ((l157 (ite l122 |state.cx!3!2| l156))) (let ((l158 (ite l121 |state.cx!4!2| l157))) (let ((l159 (= |next.cy!0!2| l158))) (let ((l160 (or l154 l159))) (let ((l161 (= |next.cy!1!2| l158))) (let ((l162 (or l154 l161))) (let ((l163 (= |next.cy!2!2| l158))) (let ((l164 (or l154 l163))) (let ((l165 (= |next.cy!3!2| l158))) (let ((l166 (or l154 l165))) (let ((l167 (= |next.cy!4!2| l158))) (let ((l168 (or l154 l167))) (let ((l169 (not |state.good_r!3|))) (let ((l170 (ite l124 |state.cx!1!3| |state.cx!0!3|))) (let ((l171 (ite l123 |state.cx!2!3| l170))) (let ((l172 (ite l122 |state.cx!3!3| l171))) (let ((l173 (ite l121 |state.cx!4!3| l172))) (let ((l174 (= |next.cy!0!3| l173))) (let ((l175 (or l169 l174))) (let ((l176 (= |next.cy!1!3| l173))) (let ((l177 (or l169 l176))) (let ((l178 (= |next.cy!2!3| l173))) (let ((l179 (or l169 l178))) (let ((l180 (= |next.cy!3!3| l173))) (let ((l181 (or l169 l180))) (let ((l182 (= |next.cy!4!3| l173))) (let ((l183 (or l169 l182))) (let ((l184 (and l130 l132 l134 l136 l138 l145 l147 l149 l151 l153 l160 l162 l164 l166 l168 l175 l177 l179 l181 l183))) (let ((l185 (= |next.round| 2))) (let ((l186 (= |next.cx!0!0| |state.cx!0!0|))) (let ((l187 (= |next.cx!0!1| |state.cx!0!1|))) (let ((l188 (= |next.cx!0!2| |state.cx!0!2|))) (let ((l189 (= |next.cx!0!3| |state.cx!0!3|))) (let ((l190 (= |next.cx!1!0| |state.cx!1!0|))) (let ((l191 (= |next.cx!1!1| |state.cx!1!1|))) (let ((l192 (= |next.cx!1!2| |state.cx!1!2|))) (let ((l193 (= |next.cx!1!3| |state.cx!1!3|))) (let ((l194 (= |next.cx!2!0| |state.cx!2!0|))) (let ((l195 (= |next.cx!2!1| |state.cx!2!1|))) (let ((l196 (= |next.cx!2!2| |state.cx!2!2|))) (let ((l197 (= |next.cx!2!3| |state.cx!2!3|))) (let ((l198 (= |next.cx!3!0| |state.cx!3!0|))) (let ((l199 (= |next.cx!3!1| |state.cx!3!1|))) (let ((l200 (= |next.cx!3!2| |state.cx!3!2|))) (let ((l201 (= |next.cx!3!3| |state.cx!3!3|))) (let ((l202 (= |next.cx!4!0| |state.cx!4!0|))) (let ((l203 (= |next.cx!4!1| |state.cx!4!1|))) (let ((l204 (= |next.cx!4!2| |state.cx!4!2|))) (let ((l205 (= |next.cx!4!3| |state.cx!4!3|))) (let ((l206 (and l186 l187 l188 l189 l190 l191 l192 l193 l194 l195 l196 l197 l198 l199 l200 l201 l202 l203 l204 l205))) (let ((l207 (and l119 l184 l185 l206 l106 l111 l117))) (let ((l208 (= |state.round| 2))) (let ((l209 (= |state.cy!0!2| |state.cy!0!3|))) (let ((l210 (ite l209 2 0))) (let ((l211 (= l210 0))) (let ((l212 (= |state.cy!0!1| |state.cy!0!3|))) (let ((l213 (+ l210 1))) (let ((l214 (- l210 1))) (let ((l215 (ite l212 l213 l214))) (let ((l216 (ite l211 1 l215))) (let ((l217 (= l216 0))) (let ((l218 (ite l211 |state.cy!0!1| |state.cy!0!3|))) (let ((l219 (ite l217 |state.cy!0!0| l218))) (let ((l220 (= |state.cy!0!3| l219))) (let ((l221 (ite l220 2 3))) (let ((l222 (= l221 0))) (let ((l223 (= |state.cy!0!2| l219))) (let ((l224 (- l221 1))) (let ((l225 (ite l223 l224 l221))) (let ((l226 (= l225 0))) (let ((l227 (= |state.cy!0!1| l219))) (let ((l228 (- l225 1))) (let ((l229 (ite l227 l228 l225))) (let ((l230 (= l229 0))) (let ((l231 (= |state.cy!0!0| l219))) (let ((l232 (- l229 1))) (let ((l233 (ite l231 l232 l229))) (let ((l234 (= l233 0))) (let ((l235 (or l222 l226 l230 l234))) (let ((l236 (ite l235 l219 0))) (let ((l237 (= |next.v!0| l236))) (let ((l238 (or l3 l237))) (let ((l239 (= |state.cy!1!2| |state.cy!1!3|))) (let ((l240 (ite l239 2 0))) (let ((l241 (= l240 0))) (let ((l242 (= |state.cy!1!1| |state.cy!1!3|))) (let ((l243 (+ l240 1))) (let ((l244 (- l240 1))) (let ((l245 (ite l242 l243 l244))) (let ((l246 (ite l241 1 l245))) (let ((l247 (= l246 0))) (let ((l248 (ite l241 |state.cy!1!1| |state.cy!1!3|))) (let ((l249 (ite l247 |state.cy!1!0| l248))) (let ((l250 (= |state.cy!1!3| l249))) (let ((l251 (ite l250 2 3))) (let ((l252 (= l251 0))) (let ((l253 (= |state.cy!1!2| l249))) (let ((l254 (- l251 1))) (let ((l255 (ite l253 l254 l251))) (let ((l256 (= l255 0))) (let ((l257 (= |state.cy!1!1| l249))) (let ((l258 (- l255 1))) (let ((l259 (ite l257 l258 l255))) (let ((l260 (= l259 0))) (let ((l261 (= |state.cy!1!0| l249))) (let ((l262 (- l259 1))) (let ((l263 (ite l261 l262 l259))) (let ((l264 (= l263 0))) (let ((l265 (or l252 l256 l260 l264))) (let ((l266 (ite l265 l249 0))) (let ((l267 (= |next.v!1| l266))) (let ((l268 (or l12 l267))) (let ((l269 (= |state.cy!2!2| |state.cy!2!3|))) (let ((l270 (ite l269 2 0))) (let ((l271 (= l270 0))) (let ((l272 (= |state.cy!2!1| |state.cy!2!3|))) (let ((l273 (+ l270 1))) (let ((l274 (- l270 1))) (let ((l275 (ite l272 l273 l274))) (let ((l276 (ite l271 1 l275))) (let ((l277 (= l276 0))) (let ((l278 (ite l271 |state.cy!2!1| |state.cy!2!3|))) (let ((l279 (ite l277 |state.cy!2!0| l278))) (let ((l280 (= |state.cy!2!3| l279))) (let ((l281 (ite l280 2 3))) (let ((l282 (= l281 0))) (let ((l283 (= |state.cy!2!2| l279))) (let ((l284 (- l281 1))) (let ((l285 (ite l283 l284 l281))) (let ((l286 (= l285 0))) (let ((l287 (= |state.cy!2!1| l279))) (let ((l288 (- l285 1))) (let ((l289 (ite l287 l288 l285))) (let ((l290 (= l289 0))) (let ((l291 (= |state.cy!2!0| l279))) (let ((l292 (- l289 1))) (let ((l293 (ite l291 l292 l289))) (let ((l294 (= l293 0))) (let ((l295 (or l282 l286 l290 l294))) (let ((l296 (ite l295 l279 0))) (let ((l297 (= |next.v!2| l296))) (let ((l298 (or l21 l297))) (let ((l299 (= |state.cy!3!2| |state.cy!3!3|))) (let ((l300 (ite l299 2 0))) (let ((l301 (= l300 0))) (let ((l302 (= |state.cy!3!1| |state.cy!3!3|))) (let ((l303 (+ l300 1))) (let ((l304 (- l300 1))) (let ((l305 (ite l302 l303 l304))) (let ((l306 (ite l301 1 l305))) (let ((l307 (= l306 0))) (let ((l308 (ite l301 |state.cy!3!1| |state.cy!3!3|))) (let ((l309 (ite l307 |state.cy!3!0| l308))) (let ((l310 (= |state.cy!3!3| l309))) (let ((l311 (ite l310 2 3))) (let ((l312 (= l311 0))) (let ((l313 (= |state.cy!3!2| l309))) (let ((l314 (- l311 1))) (let ((l315 (ite l313 l314 l311))) (let ((l316 (= l315 0))) (let ((l317 (= |state.cy!3!1| l309))) (let ((l318 (- l315 1))) (let ((l319 (ite l317 l318 l315))) (let ((l320 (= l319 0))) (let ((l321 (= |state.cy!3!0| l309))) (let ((l322 (- l319 1))) (let ((l323 (ite l321 l322 l319))) (let ((l324 (= l323 0))) (let ((l325 (or l312 l316 l320 l324))) (let ((l326 (ite l325 l309 0))) (let ((l327 (= |next.v!3| l326))) (let ((l328 (or l30 l327))) (let ((l329 (= |state.cy!4!2| |state.cy!4!3|))) (let ((l330 (ite l329 2 0))) (let ((l331 (= l330 0))) (let ((l332 (= |state.cy!4!1| |state.cy!4!3|))) (let ((l333 (+ l330 1))) (let ((l334 (- l330 1))) (let ((l335 (ite l332 l333 l334))) (let ((l336 (ite l331 1 l335))) (let ((l337 (= l336 0))) (let ((l338 (ite l331 |state.cy!4!1| |state.cy!4!3|))) (let ((l339 (ite l337 |state.cy!4!0| l338))) (let ((l340 (= |state.cy!4!3| l339))) (let ((l341 (ite l340 2 3))) (let ((l342 (= l341 0))) (let ((l343 (= |state.cy!4!2| l339))) (let ((l344 (- l341 1))) (let ((l345 (ite l343 l344 l341))) (let ((l346 (= l345 0))) (let ((l347 (= |state.cy!4!1| l339))) (let ((l348 (- l345 1))) (let ((l349 (ite l347 l348 l345))) (let ((l350 (= l349 0))) (let ((l351 (= |state.cy!4!0| l339))) (let ((l352 (- l349 1))) (let ((l353 (ite l351 l352 l349))) (let ((l354 (= l353 0))) (let ((l355 (or l342 l346 l350 l354))) (let ((l356 (ite l355 l339 0))) (let ((l357 (= |next.v!4| l356))) (let ((l358 (or l39 l357))) (let ((l359 (and l238 l268 l298 l328 l358))) (let ((l360 (= |next.round| 3))) (let ((l361 (and l208 l359 l360 l206 l100 l106 l111))) (let ((l362 (= |state.round| 3))) (let ((l363 (= |next.round| |state.round|))) (let ((l364 (and l362 l206 l100 l106 l111 l363 l117))) (let ((l365 (or l118 l207 l361 l364))) (let ((l366 (and l0 l1 l365))) l366)))))))))))))))))))))))))))))))))))))))))))))))))))))))))))))))))))))))))))))))))))))))))))))))))))))))))))))))))))))))))))))))))))))))))))))))))))))))))))))))))))))))))))))))))))))))))))))))))))))))))))))))))))))))))))))))))))))))))))))))))))))))))))))))))))))))))))))))))))))))))))))))))))))))))))))))))))))))))))))))))))))))))))))))))))))))))))))))))))))))))))))))
        )
        (invariant next.cx!0!0 next.cx!0!1 next.cx!0!2 next.cx!0!3 next.cx!1!0 next.cx!1!1 next.cx!1!2 next.cx!1!3 next.cx!2!0 next.cx!2!1 next.cx!2!2 next.cx!2!3 next.cx!3!0 next.cx!3!1 next.cx!3!2 next.cx!3!3 next.cx!4!0 next.cx!4!1 next.cx!4!2 next.cx!4!3 next.cy!0!0 next.cy!0!1 next.cy!0!2 next.cy!0!3 next.cy!1!0 next.cy!1!1 next.cy!1!2 next.cy!1!3 next.cy!2!0 next.cy!2!1 next.cy!2!2 next.cy!2!3 next.cy!3!0 next.cy!3!1 next.cy!3!2 next.cy!3!3 next.cy!4!0 next.cy!4!1 next.cy!4!2 next.cy!4!3 next.good_p!0 next.good_p!1 next.good_p!2 next.good_p!3 next.good_p!4 next.good_r!0 next.good_r!1 next.good_r!2 next.good_r!3 next.v!0 next.v!1 next.v!2 next.v!3 next.v!4 next.round next.source next.val)
    )
  )
)

;; Property
(assert
  (forall ((state.cx!0!0 Real) (state.cx!0!1 Real) (state.cx!0!2 Real) (state.cx!0!3 Real) (state.cx!1!0 Real) (state.cx!1!1 Real) (state.cx!1!2 Real) (state.cx!1!3 Real) (state.cx!2!0 Real) (state.cx!2!1 Real) (state.cx!2!2 Real) (state.cx!2!3 Real) (state.cx!3!0 Real) (state.cx!3!1 Real) (state.cx!3!2 Real) (state.cx!3!3 Real) (state.cx!4!0 Real) (state.cx!4!1 Real) (state.cx!4!2 Real) (state.cx!4!3 Real) (state.cy!0!0 Real) (state.cy!0!1 Real) (state.cy!0!2 Real) (state.cy!0!3 Real) (state.cy!1!0 Real) (state.cy!1!1 Real) (state.cy!1!2 Real) (state.cy!1!3 Real) (state.cy!2!0 Real) (state.cy!2!1 Real) (state.cy!2!2 Real) (state.cy!2!3 Real) (state.cy!3!0 Real) (state.cy!3!1 Real) (state.cy!3!2 Real) (state.cy!3!3 Real) (state.cy!4!0 Real) (state.cy!4!1 Real) (state.cy!4!2 Real) (state.cy!4!3 Real) (state.good_p!0 Bool) (state.good_p!1 Bool) (state.good_p!2 Bool) (state.good_p!3 Bool) (state.good_p!4 Bool) (state.good_r!0 Bool) (state.good_r!1 Bool) (state.good_r!2 Bool) (state.good_r!3 Bool) (state.v!0 Real) (state.v!1 Real) (state.v!2 Real) (state.v!3 Real) (state.v!4 Real) (state.round Real) (state.source Real) (state.val Real))
    (=> (invariant state.cx!0!0 state.cx!0!1 state.cx!0!2 state.cx!0!3 state.cx!1!0 state.cx!1!1 state.cx!1!2 state.cx!1!3 state.cx!2!0 state.cx!2!1 state.cx!2!2 state.cx!2!3 state.cx!3!0 state.cx!3!1 state.cx!3!2 state.cx!3!3 state.cx!4!0 state.cx!4!1 state.cx!4!2 state.cx!4!3 state.cy!0!0 state.cy!0!1 state.cy!0!2 state.cy!0!3 state.cy!1!0 state.cy!1!1 state.cy!1!2 state.cy!1!3 state.cy!2!0 state.cy!2!1 state.cy!2!2 state.cy!2!3 state.cy!3!0 state.cy!3!1 state.cy!3!2 state.cy!3!3 state.cy!4!0 state.cy!4!1 state.cy!4!2 state.cy!4!3 state.good_p!0 state.good_p!1 state.good_p!2 state.good_p!3 state.good_p!4 state.good_r!0 state.good_r!1 state.good_r!2 state.good_r!3 state.v!0 state.v!1 state.v!2 state.v!3 state.v!4 state.round state.source state.val)
        (let ((l0 (= |state.source| 5))) (let ((l1 (= |state.source| 4))) (let ((l2 (= |state.source| 3))) (let ((l3 (= |state.source| 2))) (let ((l4 (ite l3 |state.good_p!1| |state.good_p!0|))) (let ((l5 (ite l2 |state.good_p!2| l4))) (let ((l6 (ite l1 |state.good_p!3| l5))) (let ((l7 (ite l0 |state.good_p!4| l6))) (let ((l8 (not l7))) (let ((l9 (< |state.round| 3))) (let ((l10 (not |state.good_p!0|))) (let ((l11 (= |state.v!0| |state.val|))) (let ((l12 (or l10 l11))) (let ((l13 (not |state.good_p!1|))) (let ((l14 (= |state.v!1| |state.val|))) (let ((l15 (or l13 l14))) (let ((l16 (not |state.good_p!2|))) (let ((l17 (= |state.v!2| |state.val|))) (let ((l18 (or l16 l17))) (let ((l19 (not |state.good_p!3|))) (let ((l20 (= |state.v!3| |state.val|))) (let ((l21 (or l19 l20))) (let ((l22 (not |state.good_p!4|))) (let ((l23 (= |state.v!4| |state.val|))) (let ((l24 (or l22 l23))) (let ((l25 (and l12 l15 l18 l21 l24))) (let ((l26 (or l8 l9 l25))) l26)))))))))))))))))))))))))))
    )
  )
)

;; Check the property
(check-sat)
